NAME : eil21-3
COMMENT : 21-city problem (Christofides/Eilon)
TYPE : CTSP
DIMENSION : 21
SALESMEN : 3
EDGE_WEIGHT_TYPE : EUC_2D
NODE_COORD_SECTION
1 42 41
2 32 22
3 31 32
4 25 32
5 27 23
6 51 31
7 52 41
8 48 28
9 52 33
10 38 46
11 37 52
12 37 48
13 42 50
14 30 40
15 58 48
16 40 30
17 38 28
18 49 49
19 45 35
20 43 25
21 38 35
CTSP_SET_SECTION
1 2 3 4 5 -1
2 6 7 8 9 -1
3 10 11 12 13 -1
DEPOT_SECTION
1
-1
EOF
